
n_res = 8;
rcap = [89, 93, 90, 92, 679, 723, 570, 736];
rtype = [1, 1, 1, 1, 2, 2, 2, 2];
n_tasks = 50;
modes =  [{1, 2, 3, 4, 5, 6, 7, 8, 9}, {10, 11, 12, 13, 14, 15, 16, 17, 18}, {19, 20, 21, 22, 23, 24, 25, 26, 27}, {28, 29, 30, 31, 32, 33, 34, 35, 36}, {37, 38, 39, 40, 41, 42, 43, 44, 45}, {46, 47, 48, 49, 50, 51, 52, 53, 54}, {55, 56, 57, 58, 59, 60, 61, 62, 63}, {64, 65, 66, 67, 68, 69, 70, 71, 72}, {73, 74, 75, 76, 77, 78, 79, 80, 81}, {82, 83, 84, 85, 86, 87, 88, 89, 90}, {91, 92, 93, 94, 95, 96, 97, 98, 99}, {100, 101, 102, 103, 104, 105, 106, 107, 108}, {109, 110, 111, 112, 113, 114, 115, 116, 117}, {118, 119, 120, 121, 122, 123, 124, 125, 126}, {127, 128, 129, 130, 131, 132, 133, 134, 135}, {136, 137, 138, 139, 140, 141, 142, 143, 144}, {145, 146, 147, 148, 149, 150, 151, 152, 153}, {154, 155, 156, 157, 158, 159, 160, 161, 162}, {163, 164, 165, 166, 167, 168, 169, 170, 171}, {172, 173, 174, 175, 176, 177, 178, 179, 180}, {181, 182, 183, 184, 185, 186, 187, 188, 189}, {190, 191, 192, 193, 194, 195, 196, 197, 198}, {199, 200, 201, 202, 203, 204, 205, 206, 207}, {208, 209, 210, 211, 212, 213, 214, 215, 216}, {217, 218, 219, 220, 221, 222, 223, 224, 225}, {226, 227, 228, 229, 230, 231, 232, 233, 234}, {235, 236, 237, 238, 239, 240, 241, 242, 243}, {244, 245, 246, 247, 248, 249, 250, 251, 252}, {253, 254, 255, 256, 257, 258, 259, 260, 261}, {262, 263, 264, 265, 266, 267, 268, 269, 270}, {271, 272, 273, 274, 275, 276, 277, 278, 279}, {280, 281, 282, 283, 284, 285, 286, 287, 288}, {289, 290, 291, 292, 293, 294, 295, 296, 297}, {298, 299, 300, 301, 302, 303, 304, 305, 306}, {307, 308, 309, 310, 311, 312, 313, 314, 315}, {316, 317, 318, 319, 320, 321, 322, 323, 324}, {325, 326, 327, 328, 329, 330, 331, 332, 333}, {334, 335, 336, 337, 338, 339, 340, 341, 342}, {343, 344, 345, 346, 347, 348, 349, 350, 351}, {352, 353, 354, 355, 356, 357, 358, 359, 360}, {361, 362, 363, 364, 365, 366, 367, 368, 369}, {370, 371, 372, 373, 374, 375, 376, 377, 378}, {379, 380, 381, 382, 383, 384, 385, 386, 387}, {388, 389, 390, 391, 392, 393, 394, 395, 396}, {397, 398, 399, 400, 401, 402, 403, 404, 405}, {406, 407, 408, 409, 410, 411, 412, 413, 414}, {415, 416, 417, 418, 419, 420, 421, 422, 423}, {424, 425, 426, 427, 428, 429, 430, 431, 432}, {433, 434, 435, 436, 437, 438, 439, 440, 441}, {442, 443, 444, 445, 446, 447, 448, 449, 450}];
succ =  [{50, 49, 35, 26, 23, 13, 4}, {50, 44, 43, 29, 27, 25, 13, 9}, {49, 47, 46, 45, 44, 32, 31, 30, 29, 26, 25, 22, 21}, {48, 47, 45, 44, 37, 30, 27, 25, 21, 17}, {49, 47, 32, 31, 21, 11}, {46, 45, 44, 43, 42, 41, 36, 31, 30, 29, 28, 26}, {46, 41, 40, 34, 28, 22, 20}, {50, 48, 47, 45, 44, 43, 42, 36, 31, 26, 23}, {48, 46, 45, 32, 30, 24, 21}, {47, 44, 43, 42, 41, 40, 37, 32, 30, 29}, {46, 45, 44, 42, 38, 37, 36, 29, 25}, {48, 47, 44, 42, 41, 36, 31, 30, 29}, {46, 42, 41, 38, 33, 31, 24}, {48, 41, 40, 38, 36, 20}, {46, 43, 42, 41, 38, 37, 36, 29}, {48, 44, 39, 37, 36, 30}, {46, 43, 41, 32, 29}, {45, 41, 38, 36, 26}, {47, 43, 42, 40, 38, 37}, {47, 43, 42, 29}, {42, 41, 39, 38}, {43, 39, 38, 36}, {40, 37, 30}, {40, 37, 36}, {41, 40}, {40, 37}, {39, 36}, {48, 37}, {39}, {38}, {37}, {36}, {45}, {44}, {36}, {}, {}, {}, {}, {}, {}, {}, {}, {}, {}, {}, {}, {}, {}, {}];
n_opt = 450;
dur = [7, 9, 11, 12, 14, 15, 16, 21, 23, 1, 3, 4, 9, 10, 13, 20, 25, 29, 1, 6, 9, 11, 15, 16, 17, 19, 20, 1, 6, 12, 13, 17, 23, 24, 25, 27, 5, 7, 13, 18, 19, 20, 25, 26, 30, 1, 13, 15, 17, 24, 25, 26, 27, 29, 6, 11, 12, 14, 17, 19, 21, 22, 23, 2, 8, 9, 13, 14, 17, 20, 24, 28, 4, 12, 13, 23, 24, 25, 26, 29, 30, 1, 3, 7, 9, 11, 13, 18, 20, 27, 4, 9, 10, 12, 14, 16, 19, 20, 29, 7, 9, 10, 12, 15, 21, 22, 24, 30, 5, 6, 7, 14, 16, 18, 19, 22, 26, 3, 6, 9, 10, 12, 14, 19, 27, 28, 3, 4, 11, 12, 13, 15, 18, 24, 25, 1, 2, 3, 4, 7, 9, 25, 28, 29, 2, 8, 10, 11, 12, 13, 15, 22, 24, 2, 12, 13, 14, 19, 22, 25, 28, 29, 5, 7, 8, 9, 10, 11, 14, 25, 27, 2, 3, 8, 9, 13, 14, 22, 23, 29, 2, 4, 9, 12, 13, 14, 15, 21, 25, 2, 11, 14, 15, 23, 24, 25, 26, 29, 2, 3, 8, 12, 16, 23, 27, 29, 30, 1, 5, 9, 10, 13, 22, 26, 27, 29, 5, 7, 13, 15, 20, 21, 22, 23, 24, 4, 6, 9, 10, 17, 24, 25, 26, 29, 2, 3, 6, 7, 10, 13, 21, 26, 28, 1, 2, 3, 5, 11, 13, 18, 25, 28, 1, 2, 3, 11, 14, 16, 19, 20, 27, 2, 5, 7, 9, 16, 19, 21, 23, 29, 10, 14, 15, 18, 21, 22, 25, 28, 30, 5, 11, 14, 15, 17, 18, 20, 21, 22, 1, 3, 8, 13, 14, 17, 19, 20, 26, 4, 5, 10, 13, 24, 26, 28, 29, 30, 1, 4, 5, 13, 14, 19, 21, 22, 24, 1, 5, 6, 10, 11, 16, 22, 23, 28, 8, 14, 15, 16, 17, 20, 22, 27, 28, 2, 5, 9, 10, 14, 20, 27, 28, 29, 2, 3, 5, 6, 10, 15, 19, 22, 28, 2, 10, 13, 14, 18, 19, 23, 24, 27, 3, 6, 11, 12, 13, 14, 19, 24, 27, 1, 2, 3, 7, 10, 21, 22, 28, 30, 5, 6, 7, 8, 17, 18, 20, 21, 23, 3, 13, 15, 17, 18, 19, 20, 25, 26, 2, 5, 14, 18, 19, 24, 28, 29, 30, 1, 2, 3, 9, 15, 21, 24, 26, 27, 1, 8, 9, 12, 13, 14, 19, 22, 27, 5, 6, 22, 25, 26, 27, 28, 29, 30, 1, 6, 12, 17, 18, 20, 21, 22, 26, 1, 2, 5, 18, 19, 20, 22, 28, 29];
rreq = [|15, 14, 14, 13, 12, 10, 10, 9, 8, 27, 26, 26, 26, 24, 24, 23, 22, 22, 29, 23, 21, 21, 17, 13, 13, 10, 7, 19, 18, 18, 17, 16, 16, 15, 15, 14, 17, 15, 15, 15, 14, 13, 13, 12, 12, 19, 18, 14, 12, 10, 10, 8, 4, 2, 20, 18, 17, 14, 11, 10, 5, 4, 1, 14, 13, 13, 13, 12, 12, 12, 12, 12, 27, 26, 25, 25, 25, 24, 24, 23, 23, 17, 16, 15, 15, 14, 14, 13, 13, 13, 27, 25, 22, 20, 18, 18, 16, 12, 11, 7, 7, 7, 7, 7, 7, 7, 7, 7, 23, 22, 22, 22, 22, 22, 22, 22, 22, 29, 27, 27, 26, 25, 24, 23, 21, 21, 12, 11, 9, 8, 7, 7, 6, 4, 3, 27, 25, 23, 20, 19, 18, 15, 14, 11, 3, 3, 3, 3, 3, 3, 3, 3, 3, 30, 28, 26, 25, 25, 23, 22, 21, 20, 6, 6, 6, 6, 6, 5, 5, 5, 5, 11, 9, 9, 7, 6, 5, 5, 3, 3, 18, 18, 18, 17, 17, 16, 16, 15, 15, 24, 22, 20, 20, 17, 15, 11, 10, 7, 17, 17, 17, 17, 16, 16, 16, 15, 15, 24, 20, 20, 18, 16, 14, 12, 11, 9, 21, 20, 18, 16, 15, 14, 10, 10, 8, 8, 8, 8, 8, 8, 8, 8, 8, 8, 21, 18, 16, 14, 13, 13, 11, 9, 8, 10, 10, 10, 10, 10, 9, 9, 9, 9, 28, 24, 22, 19, 15, 12, 7, 6, 1, 27, 27, 26, 24, 23, 22, 21, 21, 19, 6, 5, 5, 5, 5, 5, 5, 5, 5, 21, 20, 16, 16, 12, 10, 8, 6, 4, 28, 23, 20, 19, 14, 13, 7, 5, 1, 20, 19, 18, 18, 16, 16, 16, 14, 14, 20, 18, 17, 15, 12, 10, 10, 6, 6, 15, 15, 14, 11, 9, 8, 6, 6, 4, 28, 26, 25, 24, 21, 20, 18, 15, 14, 7, 7, 7, 7, 7, 6, 6, 6, 6, 20, 19, 19, 19, 18, 18, 18, 17, 17, 11, 10, 8, 8, 7, 6, 5, 4, 4, 30, 25, 25, 22, 21, 17, 17, 14, 13, 22, 20, 18, 16, 14, 13, 12, 10, 10, 4, 3, 3, 2, 2, 2, 1, 1, 1, 29, 28, 28, 28, 27, 27, 27, 26, 26, 12, 10, 8, 8, 7, 5, 5, 3, 2, 24, 23, 23, 23, 22, 22, 22, 21, 21, 23, 20, 19, 17, 17, 14, 13, 11, 11, 17, 17, 17, 17, 17, 17, 17, 17, 17, 25, 23, 22, 20, 20, 17, 17, 14, 13, 22, 19, 19, 18, 14, 13, 12, 10, 8
 |28, 24, 22, 21, 18, 18, 15, 14, 12, 22, 18, 17, 17, 15, 13, 11, 11, 9, 23, 20, 18, 14, 10, 10, 8, 4, 2, 30, 26, 24, 23, 19, 17, 17, 14, 13, 12, 11, 11, 11, 10, 10, 10, 10, 10, 29, 24, 21, 19, 18, 12, 9, 9, 6, 4, 4, 4, 4, 4, 4, 4, 4, 4, 25, 24, 24, 23, 22, 22, 22, 21, 20, 27, 25, 23, 21, 20, 19, 16, 13, 12, 8, 7, 6, 5, 5, 4, 3, 2, 2, 16, 12, 12, 9, 9, 7, 6, 2, 1, 9, 9, 9, 9, 9, 9, 9, 9, 9, 28, 26, 26, 24, 23, 23, 22, 21, 20, 21, 21, 18, 18, 17, 14, 14, 11, 11, 22, 19, 18, 17, 16, 16, 15, 13, 12, 24, 22, 21, 20, 20, 18, 18, 16, 15, 21, 20, 18, 17, 17, 16, 15, 15, 14, 27, 25, 22, 19, 17, 17, 13, 12, 10, 29, 26, 24, 21, 19, 15, 12, 10, 8, 5, 4, 4, 4, 3, 3, 3, 2, 2, 29, 27, 23, 22, 21, 19, 17, 13, 13, 10, 10, 10, 10, 9, 9, 9, 9, 9, 17, 16, 15, 14, 11, 10, 8, 7, 5, 16, 15, 15, 14, 14, 13, 13, 12, 12, 20, 16, 16, 14, 13, 10, 8, 7, 6, 29, 28, 28, 27, 27, 26, 26, 25, 25, 28, 28, 27, 26, 26, 25, 25, 23, 23, 8, 6, 6, 4, 4, 4, 2, 1, 1, 19, 17, 15, 14, 13, 10, 9, 8, 6, 26, 24, 20, 19, 16, 15, 13, 12, 10, 23, 20, 20, 16, 16, 13, 12, 9, 6, 18, 15, 14, 12, 11, 8, 8, 5, 4, 10, 9, 9, 9, 9, 9, 9, 9, 9, 28, 27, 24, 18, 15, 13, 12, 9, 6, 7, 6, 6, 6, 5, 4, 4, 3, 3, 28, 23, 22, 17, 16, 13, 9, 5, 1, 16, 14, 14, 12, 9, 8, 6, 4, 3, 27, 25, 24, 23, 23, 22, 22, 20, 20, 26, 24, 24, 24, 23, 22, 22, 21, 21, 10, 9, 9, 9, 8, 7, 7, 7, 6, 8, 8, 8, 7, 7, 7, 6, 6, 6, 13, 10, 10, 8, 7, 7, 6, 4, 4, 6, 6, 6, 6, 6, 6, 6, 6, 6, 25, 24, 20, 17, 17, 14, 9, 8, 4, 5, 4, 4, 4, 3, 3, 3, 2, 2, 21, 19, 16, 14, 12, 12, 9, 7, 4, 27, 26, 23, 23, 21, 20, 18, 17, 15, 18, 17, 15, 14, 11, 10, 7, 4, 3, 25, 21, 20, 20, 16, 16, 13, 11, 11, 26, 21, 19, 17, 16, 13, 9, 8, 5
 |16, 14, 14, 14, 13, 12, 12, 11, 10, 7, 7, 7, 7, 7, 7, 7, 7, 7, 24, 23, 23, 23, 22, 22, 22, 22, 22, 30, 29, 28, 28, 27, 27, 26, 26, 26, 24, 23, 21, 20, 18, 17, 16, 15, 14, 17, 17, 15, 11, 11, 7, 7, 4, 2, 16, 16, 15, 15, 14, 13, 13, 11, 11, 26, 23, 21, 19, 18, 15, 13, 12, 8, 13, 12, 12, 12, 11, 10, 10, 9, 9, 26, 25, 24, 24, 23, 23, 22, 22, 22, 9, 8, 7, 5, 5, 3, 3, 2, 1, 25, 24, 24, 24, 24, 24, 24, 24, 24, 28, 28, 28, 27, 27, 27, 27, 26, 26, 28, 26, 24, 21, 21, 20, 17, 16, 13, 12, 9, 8, 7, 7, 6, 5, 3, 3, 16, 16, 16, 16, 15, 15, 15, 15, 15, 23, 20, 19, 16, 15, 12, 12, 8, 7, 7, 5, 5, 5, 4, 3, 3, 3, 2, 29, 26, 26, 25, 24, 21, 20, 19, 19, 15, 15, 15, 15, 15, 15, 15, 15, 15, 12, 11, 11, 11, 10, 10, 10, 9, 9, 7, 6, 6, 6, 6, 5, 5, 5, 5, 25, 23, 22, 19, 19, 16, 15, 14, 11, 14, 12, 10, 9, 8, 7, 5, 4, 4, 25, 24, 20, 18, 18, 15, 13, 12, 10, 9, 9, 9, 9, 9, 9, 9, 9, 9, 28, 27, 27, 26, 23, 22, 22, 19, 18, 5, 4, 4, 4, 3, 3, 3, 3, 3, 16, 15, 15, 14, 14, 14, 14, 13, 13, 18, 16, 16, 15, 14, 13, 12, 11, 10, 19, 19, 18, 16, 16, 15, 13, 12, 12, 15, 13, 13, 12, 11, 10, 9, 8, 7, 28, 22, 22, 18, 15, 11, 7, 6, 1, 28, 23, 20, 18, 13, 13, 7, 6, 2, 29, 25, 23, 21, 19, 19, 17, 14, 12, 8, 7, 5, 5, 4, 4, 3, 1, 1, 13, 12, 12, 11, 11, 10, 10, 8, 8, 14, 12, 12, 11, 10, 9, 8, 8, 7, 8, 7, 7, 7, 7, 6, 6, 6, 6, 25, 23, 22, 21, 18, 18, 15, 14, 14, 27, 25, 25, 24, 22, 21, 20, 19, 18, 29, 27, 26, 25, 25, 23, 23, 21, 21, 7, 6, 5, 5, 3, 3, 2, 1, 1, 22, 22, 22, 21, 21, 21, 20, 20, 20, 27, 25, 22, 19, 15, 14, 12, 10, 6, 7, 7, 7, 6, 5, 5, 4, 4, 4, 22, 20, 17, 15, 14, 12, 12, 9, 7, 8, 8, 8, 8, 8, 8, 8, 8, 8, 4, 3, 3, 3, 3, 3, 3, 3, 3, 27, 27, 27, 27, 26, 26, 26, 26, 26
 |22, 22, 22, 22, 22, 22, 22, 22, 22, 25, 23, 23, 22, 20, 19, 18, 18, 17, 13, 13, 12, 10, 10, 8, 8, 6, 6, 17, 16, 15, 15, 13, 13, 12, 12, 11, 25, 21, 20, 18, 14, 12, 10, 9, 5, 11, 11, 11, 10, 10, 10, 10, 9, 9, 22, 19, 19, 16, 15, 15, 14, 11, 10, 20, 19, 19, 18, 17, 17, 17, 16, 16, 27, 22, 20, 17, 14, 12, 9, 6, 4, 17, 17, 17, 17, 17, 16, 16, 16, 16, 12, 12, 11, 11, 9, 9, 9, 7, 7, 30, 24, 23, 21, 18, 12, 10, 9, 4, 18, 18, 17, 16, 16, 16, 15, 15, 14, 28, 26, 23, 22, 21, 20, 17, 17, 15, 8, 8, 8, 8, 8, 8, 8, 8, 8, 17, 15, 15, 13, 11, 9, 9, 7, 6, 22, 21, 20, 20, 19, 18, 18, 18, 17, 21, 19, 18, 17, 17, 15, 14, 13, 12, 22, 21, 18, 18, 17, 15, 12, 11, 11, 29, 29, 29, 29, 29, 28, 28, 28, 28, 18, 18, 17, 16, 14, 12, 11, 11, 9, 14, 13, 13, 12, 12, 12, 11, 11, 11, 24, 23, 23, 22, 21, 21, 20, 19, 19, 13, 12, 12, 11, 10, 9, 8, 8, 7, 27, 26, 25, 24, 21, 19, 18, 17, 14, 27, 26, 26, 25, 22, 22, 21, 20, 18, 24, 23, 22, 21, 20, 20, 20, 19, 18, 4, 3, 3, 2, 2, 2, 2, 1, 1, 29, 23, 22, 20, 17, 11, 8, 8, 2, 10, 10, 10, 10, 10, 10, 10, 10, 10, 17, 17, 14, 11, 9, 7, 7, 5, 2, 28, 28, 28, 28, 27, 27, 27, 27, 27, 21, 20, 18, 18, 17, 15, 14, 13, 13, 22, 21, 18, 17, 13, 13, 11, 7, 6, 26, 24, 22, 19, 18, 17, 15, 13, 12, 17, 15, 14, 11, 10, 8, 8, 6, 4, 24, 23, 22, 21, 21, 20, 20, 20, 19, 19, 16, 15, 14, 13, 12, 11, 10, 10, 19, 18, 18, 17, 16, 15, 14, 13, 12, 26, 23, 21, 19, 16, 14, 13, 10, 8, 19, 18, 18, 16, 16, 15, 13, 13, 12, 21, 20, 19, 18, 17, 16, 15, 13, 12, 22, 18, 17, 15, 12, 9, 5, 5, 2, 25, 23, 20, 18, 17, 13, 11, 8, 7, 19, 17, 14, 11, 11, 9, 6, 4, 3, 23, 21, 18, 15, 14, 12, 11, 8, 4, 16, 14, 12, 12, 10, 7, 7, 5, 2, 10, 10, 8, 8, 6, 5, 4, 3, 3, 16, 16, 16, 16, 15, 15, 14, 14, 14, 3, 2, 2, 2, 2, 1, 1, 1, 1
 |27, 27, 27, 27, 27, 27, 27, 27, 27, 30, 29, 27, 26, 26, 26, 24, 23, 23, 9, 9, 9, 9, 9, 9, 9, 9, 9, 28, 28, 27, 26, 25, 25, 23, 23, 22, 17, 14, 14, 13, 11, 11, 9, 8, 7, 29, 28, 26, 25, 25, 23, 23, 21, 20, 21, 18, 16, 15, 13, 11, 11, 9, 7, 3, 3, 3, 3, 2, 2, 2, 1, 1, 22, 17, 16, 12, 11, 8, 8, 5, 1, 13, 13, 13, 13, 12, 12, 12, 12, 12, 26, 26, 25, 23, 22, 20, 19, 16, 15, 29, 26, 26, 24, 23, 22, 22, 21, 20, 13, 12, 12, 12, 12, 12, 12, 12, 12, 24, 23, 21, 21, 18, 17, 17, 15, 15, 29, 26, 24, 24, 23, 20, 18, 17, 16, 28, 26, 25, 23, 22, 21, 20, 19, 16, 9, 8, 8, 7, 6, 4, 4, 2, 2, 10, 10, 9, 8, 7, 7, 7, 5, 5, 17, 15, 15, 13, 13, 12, 10, 9, 8, 23, 22, 21, 21, 20, 20, 19, 19, 19, 4, 4, 4, 4, 4, 4, 4, 4, 4, 21, 18, 15, 13, 10, 9, 5, 3, 1, 22, 18, 17, 15, 13, 12, 9, 6, 4, 25, 24, 24, 23, 23, 22, 22, 21, 21, 30, 26, 26, 23, 22, 21, 19, 17, 17, 15, 14, 13, 12, 11, 10, 8, 7, 7, 30, 27, 23, 21, 17, 16, 13, 12, 7, 24, 23, 19, 18, 16, 12, 11, 8, 6, 18, 15, 14, 11, 11, 8, 6, 5, 3, 16, 15, 15, 15, 13, 13, 12, 12, 11, 18, 17, 16, 16, 15, 13, 12, 11, 11, 23, 23, 23, 23, 23, 23, 23, 23, 23, 24, 23, 21, 20, 19, 18, 17, 16, 15, 17, 16, 15, 11, 11, 7, 6, 4, 3, 7, 6, 6, 6, 5, 4, 3, 3, 2, 11, 10, 8, 7, 7, 6, 5, 4, 4, 12, 12, 11, 11, 11, 10, 9, 9, 9, 23, 23, 21, 21, 18, 18, 16, 16, 14, 21, 21, 19, 16, 15, 14, 13, 11, 9, 25, 20, 19, 18, 15, 13, 9, 7, 6, 19, 18, 17, 17, 16, 16, 15, 15, 14, 17, 17, 16, 14, 13, 12, 11, 9, 9, 30, 29, 27, 27, 26, 25, 24, 23, 23, 20, 19, 16, 16, 12, 9, 7, 4, 2, 26, 25, 23, 22, 21, 20, 19, 19, 17, 24, 24, 24, 24, 23, 23, 23, 23, 23, 24, 21, 20, 18, 17, 16, 14, 13, 13, 22, 22, 21, 20, 20, 19, 19, 17, 17, 12, 11, 11, 9, 9, 8, 7, 6, 6, 16, 15, 15, 14, 14, 14, 14, 13, 13
 |10, 9, 9, 9, 9, 9, 9, 9, 9, 22, 21, 18, 16, 15, 14, 11, 11, 9, 26, 26, 26, 25, 25, 25, 24, 24, 24, 28, 27, 27, 27, 26, 26, 25, 25, 25, 26, 25, 25, 24, 23, 23, 22, 22, 21, 10, 10, 8, 7, 6, 6, 4, 4, 2, 25, 25, 22, 20, 19, 18, 15, 12, 12, 21, 18, 14, 14, 12, 7, 5, 5, 3, 27, 26, 24, 22, 19, 16, 14, 12, 11, 27, 24, 20, 17, 14, 9, 9, 6, 1, 21, 19, 19, 18, 17, 16, 15, 14, 13, 12, 12, 12, 12, 12, 12, 12, 12, 12, 25, 25, 24, 24, 22, 22, 21, 21, 20, 17, 16, 16, 16, 14, 14, 14, 13, 12, 26, 26, 25, 24, 23, 21, 21, 19, 18, 24, 23, 20, 18, 16, 11, 9, 8, 5, 27, 26, 26, 25, 25, 24, 24, 23, 23, 26, 26, 26, 26, 26, 26, 26, 26, 26, 17, 17, 13, 12, 9, 8, 6, 4, 2, 28, 27, 26, 25, 24, 21, 20, 19, 19, 19, 18, 16, 15, 13, 10, 10, 6, 5, 24, 23, 23, 21, 21, 19, 19, 18, 17, 30, 26, 24, 23, 22, 20, 18, 17, 14, 25, 25, 25, 24, 24, 24, 23, 23, 23, 21, 21, 21, 20, 19, 19, 18, 18, 18, 26, 26, 26, 25, 24, 24, 24, 23, 23, 10, 9, 9, 9, 8, 8, 8, 8, 8, 24, 20, 17, 16, 12, 11, 7, 4, 2, 30, 27, 26, 22, 22, 18, 17, 15, 13, 10, 10, 10, 9, 9, 9, 9, 8, 8, 13, 12, 11, 9, 9, 9, 8, 7, 6, 7, 7, 7, 7, 6, 6, 6, 6, 6, 24, 23, 22, 22, 21, 20, 18, 18, 16, 23, 20, 18, 17, 16, 13, 10, 8, 8, 12, 11, 11, 10, 10, 10, 9, 8, 8, 24, 23, 22, 22, 22, 21, 21, 20, 20, 10, 10, 9, 7, 7, 6, 5, 4, 3, 7, 7, 7, 7, 6, 6, 6, 6, 6, 27, 26, 26, 25, 24, 23, 22, 21, 20, 27, 25, 22, 21, 18, 15, 13, 13, 11, 26, 25, 25, 24, 23, 23, 22, 22, 22, 21, 21, 21, 21, 20, 20, 19, 19, 19, 3, 3, 3, 2, 2, 2, 1, 1, 1, 21, 19, 15, 15, 11, 10, 8, 3, 1, 28, 25, 24, 20, 18, 16, 13, 7, 6, 17, 16, 16, 14, 14, 13, 12, 10, 9, 23, 21, 21, 20, 20, 20, 19, 18, 18, 20, 20, 20, 19, 19, 18, 18, 17, 17, 26, 24, 21, 19, 17, 13, 10, 8, 3, 27, 24, 23, 23, 21, 20, 19, 18, 17
 |23, 22, 21, 21, 20, 20, 18, 18, 17, 16, 15, 15, 14, 13, 13, 11, 10, 10, 23, 21, 19, 19, 17, 14, 13, 13, 11, 11, 10, 8, 8, 7, 6, 6, 5, 4, 7, 7, 7, 6, 5, 5, 5, 4, 4, 23, 21, 20, 18, 17, 17, 16, 13, 13, 21, 18, 16, 14, 14, 12, 10, 9, 8, 26, 24, 22, 21, 18, 16, 15, 13, 12, 16, 15, 14, 11, 10, 8, 7, 5, 5, 25, 22, 22, 19, 17, 12, 9, 7, 6, 17, 13, 13, 11, 9, 7, 7, 3, 2, 11, 9, 9, 8, 7, 7, 7, 5, 5, 19, 18, 17, 15, 15, 14, 13, 13, 12, 21, 18, 17, 15, 13, 13, 12, 9, 7, 27, 24, 22, 20, 20, 17, 16, 14, 13, 12, 10, 10, 9, 7, 6, 6, 5, 4, 20, 20, 20, 20, 20, 20, 20, 20, 20, 20, 19, 17, 17, 16, 14, 11, 10, 9, 17, 16, 16, 15, 15, 14, 14, 13, 13, 15, 14, 12, 12, 10, 9, 9, 7, 6, 13, 11, 11, 10, 9, 9, 8, 7, 6, 28, 24, 23, 22, 19, 19, 16, 14, 12, 24, 22, 21, 20, 19, 17, 15, 14, 12, 22, 22, 22, 21, 21, 20, 20, 19, 19, 8, 7, 6, 5, 5, 5, 4, 3, 2, 18, 18, 18, 17, 17, 17, 17, 16, 16, 14, 14, 14, 13, 12, 12, 12, 11, 11, 23, 20, 20, 19, 15, 14, 13, 11, 10, 18, 15, 13, 12, 9, 8, 7, 3, 2, 23, 23, 22, 20, 20, 19, 17, 17, 15, 29, 24, 22, 21, 16, 14, 12, 10, 7, 26, 26, 26, 25, 25, 25, 24, 24, 24, 22, 18, 18, 13, 13, 9, 5, 5, 2, 20, 17, 17, 14, 13, 12, 8, 7, 5, 20, 19, 18, 16, 14, 11, 10, 7, 6, 22, 19, 16, 12, 11, 8, 5, 4, 1, 23, 22, 21, 18, 15, 13, 11, 11, 9, 11, 11, 10, 10, 9, 9, 9, 8, 8, 26, 25, 24, 23, 21, 19, 18, 17, 15, 27, 27, 24, 22, 21, 21, 18, 18, 15, 5, 5, 5, 5, 5, 5, 5, 5, 5, 7, 6, 6, 5, 4, 4, 2, 2, 1, 25, 23, 22, 21, 19, 17, 17, 15, 13, 3, 2, 2, 2, 1, 1, 1, 1, 1, 19, 17, 15, 14, 13, 12, 11, 10, 10, 26, 20, 20, 17, 14, 11, 8, 6, 3, 15, 13, 13, 12, 9, 9, 7, 6, 5, 16, 15, 13, 12, 10, 10, 8, 7, 6, 25, 24, 24, 23, 22, 20, 20, 19, 18, 14, 12, 11, 11, 9, 9, 8, 6, 6
 |10, 10, 9, 7, 6, 5, 4, 3, 3, 17, 17, 17, 17, 17, 17, 17, 17, 17, 9, 9, 8, 7, 6, 5, 3, 3, 2, 29, 29, 29, 29, 29, 29, 29, 29, 29, 23, 21, 20, 18, 16, 12, 11, 7, 7, 13, 12, 12, 11, 9, 8, 7, 6, 5, 30, 29, 29, 28, 27, 27, 27, 26, 26, 14, 13, 12, 11, 9, 8, 8, 6, 6, 10, 10, 9, 7, 6, 5, 4, 3, 3, 28, 25, 24, 22, 22, 20, 18, 17, 16, 23, 19, 17, 14, 12, 9, 9, 4, 3, 18, 17, 17, 16, 16, 16, 16, 15, 15, 9, 8, 7, 6, 6, 5, 5, 5, 4, 24, 23, 22, 21, 19, 19, 18, 15, 15, 21, 20, 19, 17, 12, 11, 10, 7, 4, 26, 25, 25, 24, 24, 23, 22, 22, 22, 15, 12, 12, 10, 9, 8, 7, 6, 6, 22, 21, 17, 17, 14, 14, 11, 10, 7, 24, 21, 19, 17, 14, 13, 11, 8, 7, 29, 28, 28, 28, 28, 28, 28, 28, 28, 12, 11, 11, 9, 8, 6, 4, 4, 2, 15, 14, 14, 14, 13, 13, 13, 13, 13, 27, 27, 27, 26, 26, 25, 24, 24, 24, 16, 16, 16, 16, 16, 16, 16, 16, 16, 21, 18, 17, 16, 13, 11, 10, 8, 8, 22, 20, 19, 18, 17, 16, 14, 12, 12, 29, 28, 28, 28, 27, 27, 26, 25, 25, 21, 18, 17, 16, 14, 13, 12, 10, 9, 23, 23, 21, 20, 19, 18, 17, 17, 16, 28, 26, 26, 25, 23, 23, 21, 20, 20, 29, 26, 26, 25, 22, 21, 21, 20, 18, 22, 22, 20, 20, 18, 17, 17, 16, 15, 25, 24, 23, 22, 21, 20, 19, 19, 18, 23, 23, 19, 19, 15, 14, 13, 9, 9, 26, 23, 19, 18, 17, 14, 11, 10, 7, 24, 24, 21, 20, 17, 14, 10, 8, 6, 17, 16, 15, 15, 15, 14, 14, 13, 13, 10, 10, 8, 8, 7, 5, 4, 3, 3, 30, 28, 27, 25, 24, 23, 22, 21, 20, 17, 17, 17, 17, 17, 17, 17, 17, 17, 28, 26, 25, 22, 22, 19, 19, 16, 16, 17, 17, 15, 14, 12, 10, 9, 8, 6, 23, 23, 23, 22, 22, 22, 22, 21, 21, 11, 10, 9, 7, 7, 6, 5, 4, 4, 29, 27, 25, 25, 23, 22, 19, 17, 17, 28, 27, 25, 24, 21, 18, 16, 14, 13, 26, 25, 22, 19, 18, 15, 15, 13, 11, 30, 28, 28, 27, 26, 26, 26, 24, 24, 22, 20, 17, 16, 12, 11, 10, 6, 6, 24, 21, 21, 18, 17, 15, 14, 12, 12|];